4 
5  04 31 47 
6  07 22 34 42 49 57 
7  04 12 19 27 34 42 49 57 
8  04 12 19 27 34 42 49 57 
9  07 16 24 31 39 46 54 
10  01 09 16 24 31 39 46 54 
11  01 09 16 24 31 39 46 54 
12  01 09 16 24 31 39 46 54 
13  02 10 18 25 33 40 48 55 
14  03 10 18 25 33 42 50 57 
15  05 12 20 27 35 42 50 57 
16  05 12 20 27 35 42 50 57 
17  05 12 20 27 35 42 50 57 
18  05 12 20 27 35 42 50 57 
19  05 12 20 27 35 43 50 57 
20  05 12 20 27 35 42 50 57 
21  05 12 27 42 57 
22  12 28 43 58 
23  11 26 
0 
